c ---- [ banner ] ------------------------------------------------------------
c
c Kissat SAT Solver
c 
c Copyright (c) 2021-2024 Armin Biere University of Freiburg
c Copyright (c) 2019-2021 Armin Biere Johannes Kepler University Linz
c 
c Version 4.0.1 43f02cf3e992cb44653b35e5cb26f93281552ae0
c gcc (Ubuntu 13.2.0-23ubuntu4) 13.2.0 -W -Wall -O3 -DNDEBUG
c Thu Sep 12 12:27:46 CEST 2024 Linux abryzen9 6.8.0-41-generic x86_64
c
c ---- [ parsing ] -----------------------------------------------------------
c
c opened and reading DIMACS file:
c
c   /data/artifact/AMulet2.0_artifact/exp4/cnf_resyn3_64/64_64_U_SP_CWT_BK_GenMul_resyn3.cnf
c
c parsed 'p cnf 36204 143228' header
c closing input after reading 2795236 bytes (3 MB)
c finished parsing after 0.03 seconds
c
c ---- [ options ] -----------------------------------------------------------
c
c --stable=0                       (different from default '1')
c
c ---- [ solving ] -----------------------------------------------------------
c
c  seconds switched rate     size/glue tier1  binary           remaining
c         MB reductions conflicts size  tier2     irredundant
c          level restarts redundant glue  trail           variables
c
c *  0.03 10 0 0 0  0 0   0   0 0.0 0 0 0 0 0% 35519 107707 36201 100%
c (  0.05 13 0 0 0  0 0   0   0 0.0 0 0 0 0 0% 35519 107707 36201 100%
c .  0.05 13 0 0 0  0 0   0   0 0.0 0 0 0 0 0% 35515 107707 36201 100%
c c  0.13 21 0 0 0  0 0   0   0 0.0 0 0 0 0 0% 41803 97116 33085 91%
c d  0.13 21 0 0 0  0 0   0   0 0.0 0 0 0 0 0% 35571 97116 33085 91%
c =  0.18 21 0 0 0  0 0   0   0 0.0 0 0 0 0 0% 35451 97116 32521 90%
c d  0.19 21 0 0 0  0 0   0   0 0.0 0 0 0 0 0% 34323 97116 32521 90%
c f  0.27 20 0 0 0  0 0   0   0 0.0 0 0 0 0 0% 35362 94044 34056 94%
c e  0.40 28 0 0 0  0 0   0   0 0.0 0 0 0 0 0% 23395 101663 24893 69%
c )  0.40 28 0 0 0  0 0   0   0 0.0 0 0 0 0 0% 23395 101663 24893 69%
c {  0.41 30 0 0 0  0 0   0   0 0.0 0 0 2 6 0% 23395 101663 24893 69%
c -  0.58 30 146 0 1 318 43 1001 655 3.1 13 4 2 6 17% 23535 101652 24893 69%
c -  0.78 30 183 0 2 465 41 2001 1393 3.1 14 5 3 7 22% 23594 101647 24893 69%
c c  0.92 24 219 0 2 559 40 2506 1832 3.2 15 5 3 7 22% 24060 101251 24518 68%
c d  0.93 24 219 0 2 559 40 2506 1831 3.2 15 5 3 7 22% 23310 101251 24518 68%
c u  0.94 24 219 0 2 559 40 2506 1327 3.2 15 5 3 7 22% 22214 101251 24518 68%
c v  0.96 24 219 0 2 559 40 2506 1194 3.2 15 5 3 7 22% 22214 101251 24518 68%
c w  0.98 29 219 0 2 559 40 2506 1189 3.2 15 5 3 7 22% 22214 101251 24518 68%
c x  0.99 29 219 0 2 559 40 2506 1189 3.2 15 5 3 7 22% 22218 101210 24518 68%
c =  1.06 29 219 0 2 559 40 2506 1189 3.2 15 5 3 7 22% 23250 101210 24002 66%
c
c  seconds   switched   rate       size/glue tier1    binary           remaining
c         MB  reductions conflicts       size  tier2      irredundant
c           level restarts    redundant    glue   trail           variables
c
c d  1.06 29 219 0 2 559 40 2506 1185 3.2 15 5 3 7 22% 22216 101210 24002 66%
c t  1.07 29 219 0 2 559 40 2506 1185 3.2 15 5 3 7 22% 22180 101210 24002 66%
c f  1.10 29 219 0 2 559 40 2506 1185 3.2 15 5 3 7 22% 22819 99811 24636 68%
c u  1.16 29 219 0 2 559 40 2506 1091 3.2 15 5 3 7 22% 22824 99811 24636 68%
c v  1.17 29 219 0 2 559 40 2506 1056 3.2 15 5 3 7 22% 22824 99811 24636 68%
c w  1.20 29 219 0 2 559 40 2506 1041 3.2 15 5 3 7 22% 22824 99811 24636 68%
c =  1.26 29 219 0 2 559 40 2506 1041 3.2 15 5 3 7 22% 24064 99811 24016 66%
c d  1.27 29 219 0 2 559 40 2506 1035 3.2 15 5 3 7 22% 22752 99811 24016 66%
c t  1.28 29 219 0 2 559 40 2506 1035 3.2 15 5 3 7 22% 22718 99811 24016 66%
c f  1.30 29 219 0 2 559 40 2506 1035 3.2 15 5 3 7 22% 22967 99123 24339 67%
c -  1.56 29 222 0 3 724 42 3415 1613 3.4 24 7 3 9 26% 22994 99123 24339 67%
c -  1.73 29 351 0 4 800 34 5148 2658 3.1 20 6 2 9 25% 23116 99119 24339 67%
c -  1.97 29 313 0 5 955 31 7149 3924 3.0 19 6 3 9 26% 23182 99117 24339 67%
c d  2.03 29 312 0 5 978 30 7714 4371 2.9 18 6 3 9 26% 23177 99115 24322 67%
c u  2.06 29 312 0 5 978 30 7714 3369 2.9 18 6 3 9 26% 23183 99115 24322 67%
c v  2.08 29 312 0 5 978 30 7714 3185 2.9 18 6 3 9 26% 23183 99115 24322 67%
c w  2.09 29 312 0 5 978 30 7714 3183 2.9 18 6 3 9 26% 23183 99115 24322 67%
c x  2.11 29 312 0 5 978 30 7714 3183 2.9 18 6 3 9 26% 23187 98493 24322 67%
c =  2.23 29 312 0 5 978 30 7714 3183 2.9 18 6 3 9 26% 23979 98493 23926 66%
c d  2.24 29 312 0 5 978 30 7714 3165 2.9 18 6 3 9 26% 22985 98493 23926 66%
c
c  seconds   switched   rate       size/glue tier1    binary          remaining
c         MB  reductions conflicts       size  tier2      irredundant
c           level restarts    redundant    glue   trail          variables
c
c t  2.25 29 312 0 5 978 30 7714 3165 2.9 18 6 3 9 26% 22921 98493 23926 66%
c f  2.29 29 312 0 5 978 30 7714 3165 2.9 18 6 3 9 26% 23078 98114 24078 67%
c c  2.34 29 312 0 5 978 30 7714 3165 2.9 18 6 3 9 26% 23087 98093 24074 66%
c d  2.35 29 312 0 5 978 30 7714 3165 2.9 18 6 3 9 26% 23079 98093 24074 66%
c u  2.37 29 312 0 5 978 30 7714 2991 2.9 18 6 3 9 26% 23082 98093 24074 66%
c v  2.39 29 312 0 5 978 30 7714 2860 2.9 18 6 3 9 26% 23082 98093 24074 66%
c w  2.40 29 312 0 5 978 30 7714 2850 2.9 18 6 3 9 26% 23082 98093 24074 66%
c x  2.42 29 312 0 5 978 30 7714 2849 2.9 18 6 3 9 26% 23091 97017 24074 66%
c =  2.51 29 312 0 5 978 30 7714 2849 2.9 18 6 3 9 26% 23599 97017 23820 66%
c d  2.52 29 312 0 5 978 30 7714 2837 2.9 18 6 3 9 26% 22900 97017 23820 66%
c t  2.54 29 312 0 5 978 30 7714 2837 2.9 18 6 3 9 26% 22889 97017 23820 66%
c f  2.57 29 312 0 5 978 30 7714 2837 2.9 18 6 3 9 26% 23027 96731 23918 66%
c -  2.87 29 284 0 6 1130 29 9385 3788 3.0 19 7 3 9 28% 23066 96731 23918 66%
c o  2.96 29 290 0 6 1147 28 10148 4451 3.0 19 6 3 9 28% 23096 96730 23918 66%
c -  3.24 29 281 0 7 1253 28 11834 5234 3.2 20 6 3 9 28% 23152 96728 23918 66%
c s  3.50 29 275 0 7 1303 28 12523 5859 3.2 21 6 3 9 28% 23177 91527 23918 66%
c e  3.62 29 275 0 7 1303 28 12523 5859 3.2 21 6 3 9 28% 20216 93599 22085 61%
c 2  3.62 29 275 0 7 1303 28 12523 5859 3.2 21 6 3 9 28% 20215 93599 22085 61%
c s  3.64 29 275 0 7 1303 28 12523 5859 3.2 21 6 3 9 28% 20218 92867 22085 61%
c e  3.66 29 275 0 7 1303 28 12523 5859 3.2 21 6 3 9 28% 20142 92912 22045 61%
c
c  seconds   switched    rate        size/glue tier1    binary          remaining
c         MB  reductions   conflicts       size  tier2      irredundant
c           level  restarts     redundant    glue   trail          variables
c
c ^  3.66 29 275 0 7 1303 28 12523 5859 3.2 21 6 3 9 28% 20142 92912 22045 61%
c -  3.92 29 284 0 8 1369 26 14479 5626 3.1 19 6 2 9 27% 20250 92910 22045 61%
c d  4.21 29 284 0 8 1454 26 15799 6747 3.1 19 6 2 9 27% 20270 92909 22021 61%
c u  4.26 29 284 0 8 1454 26 15799 5736 3.1 19 6 2 9 27% 20291 92909 22021 61%
c v  4.31 29 284 0 8 1454 26 15799 4907 3.1 19 6 2 9 27% 20291 92909 22021 61%
c w  4.33 29 284 0 8 1454 26 15799 4906 3.1 19 6 2 9 27% 20291 92909 22021 61%
c x  4.35 29 284 0 8 1454 26 15799 4906 3.1 19 6 2 9 27% 20298 92109 22021 61%
c =  4.49 29 284 0 8 1454 26 15799 4906 3.1 19 6 2 9 27% 20834 92109 21753 60%
c d  4.50 29 284 0 8 1454 26 15799 4891 3.1 19 6 2 9 27% 20117 92109 21753 60%
c t  4.51 29 284 0 8 1454 26 15799 4891 3.1 19 6 2 9 27% 20069 92109 21753 60%
c f  4.56 29 284 0 8 1454 26 15799 4891 3.1 19 6 2 9 27% 20088 91936 21807 60%
c u  4.60 29 284 0 8 1454 26 15799 4683 3.1 19 6 2 9 27% 20095 91936 21807 60%
c v  4.62 29 284 0 8 1454 26 15799 4529 3.1 19 6 2 9 27% 20095 91936 21807 60%
c w  4.67 29 284 0 8 1454 26 15799 4528 3.1 19 6 2 9 27% 20095 91936 21807 60%
c x  4.69 29 284 0 8 1454 26 15799 4528 3.1 19 6 2 9 27% 20137 90883 21807 60%
c =  4.80 29 284 0 8 1454 26 15799 4528 3.1 19 6 2 9 27% 20673 90883 21539 59%
c d  4.81 29 284 0 8 1454 26 15799 4507 3.1 19 6 2 9 27% 20066 90883 21537 59%
c t  4.83 29 284 0 8 1454 26 15799 4507 3.1 19 6 2 9 27% 20036 90883 21537 59%
c f  4.86 29 284 0 8 1454 26 15799 4507 3.1 19 6 2 9 27% 20011 90821 21556 60%
c -  5.02 29 283 0 9 1535 25 17308 5005 3.0 19 6 2 9 27% 20053 90821 21556 60%
c
c  seconds   switched    rate        size/glue tier1    binary          remaining
c         MB  reductions   conflicts       size  tier2      irredundant
c           level  restarts     redundant    glue   trail          variables
c
c o  5.56 29 275 0 9 1833 26 20282 7601 3.0 21 7 2 9 27% 20143 90819 21556 60%
c -  5.58 29 275 0 10 1839 26 20308 6680 3.1 21 7 2 8 27% 20143 90819 21556 60%
c -  5.98 29 274 0 11 2023 26 23470 8225 3.1 21 7 2 8 28% 20240 90816 21556 60%
c s  6.18 29 271 0 11 2099 26 25029 9619 3.1 21 7 2 8 28% 20277 90049 21556 60%
c e  6.29 29 271 0 11 2099 26 25029 9619 3.1 21 7 2 8 28% 16906 94816 19686 54%
c 2  6.29 29 271 0 11 2099 26 25029 9619 3.1 21 7 2 8 28% 16901 94816 19686 54%
c s  6.31 29 271 0 11 2099 26 25029 9619 3.1 21 7 2 8 28% 16981 93518 19686 54%
c e  6.33 29 271 0 11 2099 26 25029 9619 3.1 21 7 2 8 28% 16773 93838 19548 54%
c ^  6.33 29 271 0 11 2099 26 25029 9619 3.1 21 7 2 8 28% 16773 93838 19548 54%
c -  6.53 29 260 0 12 2152 24 26788 8307 3.0 21 7 2 8 28% 16803 93838 19548 54%
c c  6.60 29 259 0 12 2161 24 26931 8439 3.0 21 7 2 8 28% 16828 93765 19531 54%
c d  6.60 29 259 0 12 2161 24 26931 8405 3.0 21 7 2 8 28% 16775 93765 19519 54%
c u  6.64 29 259 0 12 2161 24 26931 7380 3.0 21 7 2 8 28% 16787 93765 19519 54%
c v  6.67 29 259 0 12 2161 24 26931 6456 3.0 21 7 2 8 28% 16787 93765 19519 54%
c w  6.68 29 259 0 12 2161 24 26931 6445 3.0 21 7 2 8 28% 16787 93765 19519 54%
c x  6.72 29 259 0 12 2161 24 26931 6443 3.0 21 7 2 8 28% 16808 92688 19519 54%
c =  6.88 29 259 0 12 2161 24 26931 6443 3.0 21 7 2 8 28% 17566 92687 19140 53%
c d  6.88 29 259 0 12 2161 24 26931 6357 3.0 21 7 2 8 28% 16787 92687 19138 53%
c t  6.90 29 259 0 12 2161 24 26931 6357 3.0 21 7 2 8 28% 16694 92687 19138 53%
c f  6.96 29 259 0 12 2161 24 26931 6357 3.0 21 7 2 8 28% 16856 91918 19281 53%
c
c  seconds   switched     rate        size/glue tier1    binary          remaining
c         MB   reductions   conflicts       size  tier2      irredundant
c           level   restarts     redundant    glue   trail          variables
c
c u  7.00 29 259 0 12 2161 24 26931 6066 3.0 21 7 2 8 28% 16857 91918 19281 53%
c v  7.03 29 259 0 12 2161 24 26931 5886 3.0 21 7 2 8 28% 16857 91918 19281 53%
c w  7.03 29 259 0 12 2161 24 26931 5884 3.0 21 7 2 8 28% 16857 91918 19281 53%
c x  7.10 29 259 0 12 2161 24 26931 5878 3.0 21 7 2 8 28% 16895 89867 19281 53%
c =  7.26 29 259 0 12 2161 24 26931 5878 3.0 21 7 2 8 28% 18059 89867 18699 52%
c d  7.27 29 259 0 12 2161 24 26931 5835 3.0 21 7 2 8 28% 16857 89867 18699 52%
c t  7.28 29 259 0 12 2161 24 26931 5835 3.0 21 7 2 8 28% 16775 89867 18699 52%
c f  7.33 29 259 0 12 2161 24 26931 5835 3.0 21 7 2 8 28% 16794 89529 18751 52%
c -  7.74 29 243 0 13 2345 23 30254 7688 2.9 20 7 2 8 28% 16828 89529 18751 52%
c -  8.20 29 234 0 14 2540 22 33860 9548 2.8 19 7 2 8 29% 16901 89529 18751 52%
c -  8.65 29 225 0 15 2718 21 37601 11055 2.8 19 7 2 8 29% 16964 89529 18751 52%
c o  9.01 29 220 0 15 2917 21 40579 13660 2.8 18 7 2 8 29% 17013 89529 18751 52%
c d  9.10 29 218 0 15 2962 21 41258 14202 2.8 18 7 2 8 29% 16990 89528 18729 52%
c u  9.15 29 218 0 15 2962 21 41258 12513 2.8 18 7 2 8 29% 17008 89528 18729 52%
c v  9.19 29 218 0 15 2962 21 41258 11960 2.8 18 7 2 8 29% 17008 89528 18729 52%
c w  9.22 29 218 0 15 2962 21 41258 11960 2.8 18 7 2 8 29% 17008 89528 18729 52%
c x  9.27 29 218 0 15 2962 21 41258 11960 2.8 18 7 2 8 29% 17009 85766 18729 52%
c =  9.50 29 218 0 15 2962 21 41258 11960 2.8 18 7 2 8 29% 18717 85754 17875 49%
c d  9.51 29 218 0 15 2962 21 41258 11663 2.8 18 7 2 8 29% 16967 85754 17875 49%
c t  9.53 29 218 0 15 2962 21 41258 11663 2.8 18 7 2 8 29% 16769 85754 17875 49%
c
c  seconds   switched     rate         size/glue tier1    binary          remaining
c         MB   reductions   conflicts        size  tier2      irredundant
c           level   restarts      redundant    glue   trail          variables
c
c f  9.56 29 218 0 15 2962 21 41258 11663 2.8 18 7 2 8 29% 16829 85217 17970 50%
c u  9.61 29 218 0 15 2962 21 41258 11176 2.8 18 7 2 8 29% 16837 85217 17970 50%
c v  9.66 29 218 0 15 2962 21 41258 10013 2.8 18 7 2 8 29% 16838 85217 17970 50%
c w  9.69 29 218 0 15 2962 21 41258 10008 2.8 18 7 2 8 29% 16838 85217 17970 50%
c x  9.74 29 218 0 15 2962 21 41258 10008 2.8 18 7 2 8 29% 16838 82323 17970 50%
c =  9.92 29 218 0 15 2962 21 41258 10008 2.8 18 7 2 8 29% 17018 82323 17880 49%
c d  9.93 29 218 0 15 2962 21 41258 9973 2.8 18 7 2 8 29% 16834 82323 17880 49%
c t  9.94 29 218 0 15 2962 21 41258 9973 2.8 18 7 2 8 29% 16821 82323 17880 49%
c f  9.96 29 218 0 15 2962 21 41258 9973 2.8 18 7 2 8 29% 16849 82209 17899 49%
c -  9.99 29 218 0 16 2965 21 41473 8837 2.7 18 7 2 8 29% 16850 82209 17899 49%
c - 10.39 29 208 0 17 3131 20 45473 10776 2.7 18 7 2 8 28% 16947 82207 17899 49%
c - 10.86 29 200 0 18 3336 19 49596 12782 2.6 17 6 2 8 29% 17019 82204 17899 49%
c s 11.24 29 196 0 18 3539 19 52138 15077 2.6 17 7 2 8 29% 17062 79447 17899 49%
c e 11.33 29 196 0 18 3539 19 52138 15077 2.6 17 7 2 8 29% 15319 82561 16759 46%
c 2 11.33 29 196 0 18 3539 19 52138 15077 2.6 17 7 2 8 29% 15317 82561 16759 46%
c s 11.34 29 196 0 18 3539 19 52138 15077 2.6 17 7 2 8 29% 15398 81806 16759 46%
c e 11.36 29 196 0 18 3539 19 52138 15077 2.6 17 7 2 8 29% 15367 81842 16739 46%
c ^ 11.36 29 196 0 18 3539 19 52138 15077 2.6 17 7 2 8 29% 15367 81842 16739 46%
c - 11.61 31 193 0 19 3660 19 53838 12994 2.6 17 7 2 8 29% 15375 81842 16739 46%
c - 12.06 31 187 0 20 3922 19 58197 14633 2.5 16 6 2 7 29% 15446 81842 16739 46%
c
c  seconds   switched     rate         size/glue tier1    binary          remaining
c         MB   reductions   conflicts        size  tier2      irredundant
c           level   restarts      redundant    glue   trail          variables
c
c c 12.15 31 186 0 20 3943 19 58884 15101 2.5 16 6 2 7 29% 15502 81654 16699 46%
c d 12.15 31 186 0 20 3943 19 58884 14847 2.5 16 6 2 7 29% 15422 81654 16699 46%
c u 12.21 31 186 0 20 3943 19 58884 12641 2.5 16 6 2 7 29% 15440 81654 16699 46%
c v 12.26 31 186 0 20 3943 19 58884 11463 2.5 16 6 2 7 29% 15443 81654 16699 46%
c w 12.28 31 186 0 20 3943 19 58884 11453 2.5 16 6 2 7 29% 15443 81654 16699 46%
c x 12.33 31 186 0 20 3943 19 58884 11453 2.5 16 6 2 7 29% 15447 81412 16699 46%
c = 12.55 31 186 0 20 3943 19 58884 11453 2.5 16 6 2 7 29% 15769 81412 16538 46%
c d 12.55 31 186 0 20 3943 19 58884 11375 2.5 16 6 2 7 29% 15424 81412 16538 46%
c t 12.57 31 186 0 20 3943 19 58884 11375 2.5 16 6 2 7 29% 15336 81412 16538 46%
c f 12.62 31 186 0 20 3943 19 58884 11375 2.5 16 6 2 7 29% 15409 81122 16579 46%
c u 12.68 31 186 0 20 3943 19 58884 10843 2.5 16 6 2 7 29% 15413 81122 16579 46%
c v 12.72 31 186 0 20 3943 19 58884 10204 2.5 16 6 2 7 29% 15416 81122 16579 46%
c w 12.73 31 186 0 20 3943 19 58884 10193 2.5 16 6 2 7 29% 15416 81122 16579 46%
c x 12.82 31 186 0 20 3943 19 58884 10186 2.5 16 6 2 7 29% 15524 78631 16579 46%
c = 13.05 31 186 0 20 3943 19 58884 10186 2.5 16 6 2 7 29% 16882 78623 15900 44%
c d 13.06 31 186 0 20 3943 19 58884 9997 2.5 16 6 2 7 29% 15497 78623 15900 44%
c t 13.07 31 186 0 20 3943 19 58884 9997 2.5 16 6 2 7 29% 15337 78623 15900 44%
c f 13.10 31 186 0 20 3943 19 58884 9997 2.5 16 6 2 7 29% 15427 78184 15963 44%
c - 13.46 31 181 0 21 4141 18 62671 11773 2.5 16 6 2 7 29% 15467 78183 15963 44%
c - 13.91 31 175 0 22 4386 18 67254 14142 2.4 16 6 2 7 29% 15536 78183 15963 44%
c
c  seconds   switched     rate         size/glue tier1    binary          remaining
c         MB   reductions   conflicts        size  tier2      irredundant
c           level   restarts      redundant    glue   trail          variables
c
c o 14.39 31 172 0 22 4681 18 70887 17414 2.4 16 6 2 7 29% 15589 78182 15963 44%
c - 14.51 31 171 0 23 4764 18 71944 16076 2.4 16 6 2 7 29% 15598 78182 15963 44%
c - 15.14 31 166 0 24 5150 18 76739 17786 2.4 15 6 2 7 29% 15646 78182 15963 44%
c c 15.52 31 163 0 24 5362 17 79939 20596 2.4 15 6 2 7 29% 15718 78104 15939 44%
c d 15.53 31 163 0 24 5362 17 79939 20494 2.4 15 6 2 7 29% 15670 78104 15939 44%
c u 15.61 31 163 0 24 5362 17 79939 17694 2.4 15 6 2 7 29% 15689 78104 15939 44%
c v 15.67 31 163 0 24 5362 17 79939 16989 2.4 15 6 2 7 29% 15691 78104 15939 44%
c w 15.71 31 163 0 24 5362 17 79939 16988 2.4 15 6 2 7 29% 15691 78104 15939 44%
c x 15.77 31 163 0 24 5362 17 79939 16986 2.4 15 6 2 7 29% 15754 76065 15939 44%
c = 15.85 31 163 0 24 5362 17 79939 16986 2.4 15 6 2 7 29% 15794 76065 15919 44%
c d 15.85 31 163 0 24 5362 17 79939 16943 2.4 15 6 2 7 29% 15745 76065 15916 44%
c t 15.87 31 163 0 24 5362 17 79939 16943 2.4 15 6 2 7 29% 15706 76065 15916 44%
c f 15.88 31 163 0 24 5362 17 79939 16943 2.4 15 6 2 7 29% 15715 76018 15923 44%
c c 15.92 31 163 0 24 5362 17 79939 16929 2.4 15 6 2 7 29% 15718 76006 15921 44%
c d 15.93 31 163 0 24 5362 17 79939 16929 2.4 15 6 2 7 29% 15714 76006 15921 44%
c u 15.99 31 163 0 24 5362 17 79939 15972 2.4 15 6 2 7 29% 15728 76006 15921 44%
c v 16.05 31 163 0 24 5362 17 79939 14364 2.4 15 6 2 7 29% 15734 76006 15921 44%
c w 16.08 31 163 0 24 5362 17 79939 14345 2.4 15 6 2 7 29% 15734 76006 15921 44%
c x 16.14 31 163 0 24 5362 17 79939 14343 2.4 15 6 2 7 29% 15778 75570 15921 44%
c = 16.44 31 163 0 24 5362 17 79939 14343 2.4 15 6 2 7 29% 16511 75525 15552 43%
c
c  seconds   switched     rate         size/glue tier1    binary          remaining
c         MB   reductions   conflicts        size  tier2      irredundant
c           level   restarts      redundant    glue   trail          variables
c
c d 16.45 31 163 0 24 5362 17 79939 14101 2.4 15 6 2 7 29% 15743 75525 15552 43%
c t 16.46 31 163 0 24 5362 17 79939 14101 2.4 15 6 2 7 29% 15608 75525 15552 43%
c f 16.48 31 163 0 24 5362 17 79939 14101 2.4 15 6 2 7 29% 15637 75359 15576 43%
c - 16.67 31 161 0 25 5450 17 81637 13837 2.4 15 6 2 7 29% 15655 75359 15576 43%
c - 17.34 31 157 0 26 5821 17 86637 16230 2.4 15 6 2 7 29% 15700 75359 15576 43%
c - 17.97 31 156 0 27 6266 17 91736 18379 2.4 15 6 2 7 29% 15747 75356 15576 43%
c s 18.47 31 156 0 27 6615 17 95791 21952 2.4 15 6 2 7 29% 15812 72057 15576 43%
c e 18.60 31 156 0 27 6615 17 95791 21952 2.4 15 6 2 7 29% 11801 83053 13265 37%
c 2 18.60 31 156 0 27 6615 17 95791 21952 2.4 15 6 2 7 29% 11797 83053 13265 37%
c s 18.62 31 156 0 27 6615 17 95791 21952 2.4 15 6 2 7 29% 11895 81640 13265 37%
c e 18.65 31 156 0 27 6615 17 95791 21952 2.4 15 6 2 7 29% 11759 81838 13202 36%
c ^ 18.65 31 156 0 27 6615 17 95791 21952 2.4 15 6 2 7 29% 11759 81838 13202 36%
c - 18.78 31 155 0 28 6713 17 96932 14553 2.3 15 6 2 7 29% 11765 81837 13202 36%
c - 19.40 31 153 0 29 7141 17 102223 17066 2.3 15 6 2 7 30% 11814 81837 13202 36%
c d 19.69 31 152 0 29 7344 17 104547 19163 2.3 15 6 2 7 30% 11815 81835 13194 36%
c u 19.76 31 152 0 29 7344 17 104547 16329 2.3 15 6 2 7 30% 11833 81835 13194 36%
c v 19.84 31 152 0 29 7344 17 104547 14283 2.3 15 6 2 7 30% 11835 81835 13194 36%
c w 19.88 31 152 0 29 7344 17 104547 14281 2.3 15 6 2 7 30% 11835 81835 13194 36%
c x 19.94 31 152 0 29 7344 17 104547 14275 2.3 15 6 2 7 30% 11849 81057 13194 36%
c = 20.34 31 152 0 29 7344 17 104547 14275 2.3 15 6 2 7 30% 12243 80997 12992 36%
c
c  seconds   switched     rate          size/glue tier1    binary          remaining
c         MB   reductions   conflicts         size  tier2      irredundant
c           level   restarts       redundant    glue   trail          variables
c
c d 20.34 31 152 0 29 7344 17 104547 14033 2.3 15 6 2 7 30% 11827 80997 12992 36%
c t 20.35 31 152 0 29 7344 17 104547 14033 2.3 15 6 2 7 30% 11729 80997 12992 36%
c f 20.45 31 152 0 29 7344 17 104547 14033 2.3 15 6 2 7 30% 11750 80881 13001 36%
c u 20.54 31 152 0 29 7344 17 104547 13433 2.3 15 6 2 7 30% 11765 80881 13001 36%
c v 20.59 31 152 0 29 7344 17 104547 12966 2.3 15 6 2 7 30% 11767 80881 13001 36%
c w 20.67 31 152 0 29 7344 17 104547 12891 2.3 15 6 2 7 30% 11767 80881 13001 36%
c x 20.73 31 152 0 29 7344 17 104547 12882 2.3 15 6 2 7 30% 11783 79541 13001 36%
c = 21.11 31 152 0 29 7344 17 104547 12882 2.3 15 6 2 7 30% 12057 79519 12863 36%
c d 21.12 31 152 0 29 7344 17 104547 12785 2.3 15 6 2 7 30% 11777 79519 12863 36%
c t 21.13 31 152 0 29 7344 17 104547 12785 2.3 15 6 2 7 30% 11735 79519 12863 36%
c f 21.14 31 152 0 29 7344 17 104547 12785 2.3 15 6 2 7 30% 11751 79424 12871 36%
c - 21.57 31 151 0 30 7629 17 107608 13878 2.3 15 6 2 7 30% 11759 79423 12871 36%
c o 22.06 31 149 0 30 7985 17 110887 16889 2.3 15 6 2 7 30% 11777 79422 12871 36%
c - 22.32 31 148 0 31 8199 17 113085 16656 2.3 15 6 2 7 31% 11791 79415 12871 36%
c - 22.99 31 145 0 32 8717 17 118656 18952 2.3 15 6 2 7 30% 11827 79413 12871 36%
c i 23.18 31 145 0 32 8872 17 120287 20404 2.3 15 6 2 7 30% 11849 79410 12870 36%
c i 23.21 31 145 0 32 8887 17 120793 20875 2.3 15 6 2 7 30% 11852 79410 12868 36%
c i 23.27 31 145 0 32 8926 17 121382 21431 2.3 15 6 2 7 30% 11855 79410 12867 36%
c i 23.29 31 145 0 32 8938 17 121729 21707 2.3 15 6 2 7 30% 11865 79410 12866 36%
c i 23.29 31 145 0 32 8938 17 121734 21707 2.3 15 6 2 7 30% 11866 79410 12865 36%
c
c  seconds   switched     rate          size/glue tier1    binary          remaining
c         MB   reductions   conflicts         size  tier2      irredundant
c           level   restarts       redundant    glue   trail          variables
c
c i 23.29 31 145 0 32 8938 17 121736 21708 2.3 15 6 2 7 30% 11866 79410 12863 36%
c i 23.36 31 144 0 32 8972 17 122559 22462 2.3 15 6 2 7 30% 11875 79410 12862 36%
c i 23.43 31 144 0 32 9020 17 123038 22908 2.2 15 6 2 7 30% 11878 79410 12861 36%
c - 23.59 31 143 0 33 9121 17 124312 20663 2.2 15 6 2 6 31% 11863 79410 12861 36%
c i 23.61 31 143 0 33 9127 17 124477 20797 2.2 15 6 2 6 31% 11866 79410 12860 36%
c i 23.73 31 143 0 33 9233 17 125269 21527 2.2 15 7 2 6 31% 11876 79410 12859 36%
c i 23.80 31 143 0 33 9288 17 125666 21886 2.2 15 7 2 6 31% 11880 79410 12858 36%
c i 23.92 31 143 0 33 9381 17 126578 22720 2.2 15 7 2 6 31% 11886 79410 12857 36%
c i 24.15 31 141 0 33 9589 17 129376 25228 2.2 15 7 2 6 31% 11910 79407 12856 36%
c i 24.26 31 140 0 33 9693 17 130047 25853 2.2 15 7 2 6 31% 11915 79406 12855 36%
c - 24.27 31 140 0 34 9696 17 130057 22162 2.2 15 7 2 6 31% 11903 79406 12855 36%
c i 24.37 31 140 0 34 9782 17 130913 22951 2.2 15 7 2 6 31% 11917 79406 12854 36%
c i 24.39 31 140 0 34 9791 17 131173 23192 2.2 15 7 2 6 31% 11919 79406 12853 36%
c i 24.42 31 140 0 34 9799 17 131409 23411 2.2 15 7 2 6 31% 11921 79406 12852 35%
c i 24.52 31 140 0 34 9891 17 132252 24183 2.2 15 7 2 6 31% 11930 79406 12850 35%
c d 24.59 31 139 0 34 9933 17 132782 24513 2.2 15 7 2 6 31% 11955 79219 12837 35%
c d 24.59 31 139 0 34 9933 17 132782 24498 2.2 15 7 2 6 31% 11910 79217 12815 35%
c u 24.67 31 139 0 34 9933 17 132782 21315 2.2 15 7 2 6 31% 11941 79217 12812 35%
c v 24.74 31 139 0 34 9933 17 132782 20207 2.2 15 7 2 6 31% 11941 79217 12812 35%
c w 24.78 31 139 0 34 9933 17 132782 20192 2.2 15 7 2 6 31% 11941 79217 12812 35%
c
c  seconds   switched     rate          size/glue tier1    binary          remaining
c         MB   reductions   conflicts         size  tier2      irredundant
c           level   restarts       redundant    glue   trail          variables
c
c x 24.87 31 139 0 34 9933 17 132782 20179 2.2 15 7 2 6 31% 12004 76053 12812 35%
c = 24.91 31 139 0 34 9933 17 132782 20179 2.2 15 7 2 6 31% 12159 75775 12703 35%
c } 24.91 31 139 0 34 9933 17 132782 20179 2.2 15 7 2 6 31% 12159 75775 12775 35%
c 0 24.91 31 139 0 34 9933 17 132782 20179 2.2 15 7 2 6 31% 12159 75775 12775 35%
c
c ---- [ result ] ------------------------------------------------------------
c
s UNSATISFIABLE
c
c ---- [ profiling ] ---------------------------------------------------------
c
c          16.68   66.97 %  search
c          16.68   66.97 %  focused
c           7.81   31.37 %  simplify
c           7.33   29.41 %  probe
c           2.98   11.97 %  sweep
c           2.61   10.48 %  vivify
c           0.71    2.84 %  eliminate
c           0.70    2.80 %  factor
c           0.44    1.76 %  substitute
c           0.42    1.68 %  congruence
c           0.35    1.40 %  preprocess
c           0.17    0.67 %  reduce
c           0.15    0.60 %  subsume
c           0.12    0.49 %  fastel
c           0.12    0.48 %  transitive
c           0.06    0.25 %  backbone
c           0.03    0.14 %  lucky
c           0.03    0.12 %  parse
c =============================================
c          24.91  100.00 %  total
c
c ---- [ statistics ] --------------------------------------------------------
c
c chronological:                         3167                2 %  conflicts
c conflicts:                           132782             5330.85 per second
c congruent:                             3578               10 %  variables
c decisions:                          2248116               16.93 per conflict
c eliminated:                           16578               46 %  variables
c factored:                              3276                9 %  variables
c fast_eliminated:                       9163               55 %  eliminated
c fast_strengthened:                      381                8 %  per strengthened
c fast_subsumed:                           93                1 %  per subsumed
c iterations:                              18                0 %  variables
c propagations:                     128418886          5155684    per second
c reductions:                              34             3905    interval
c reordered:                                5            26556    interval
c restarts:                              9933               13    interval
c strengthened:                          4735                0 %  checks
c substituted:                          10053               28 %  variables
c subsumed:                             16045                1 %  checks
c switched:                                 0                0    interval
c vivified:                             73141               15 %  checks
c
c ---- [ glue usage ] --------------------------------------------------------
c
c focused glue 2 used 60910 clauses 27.01% accumulated 63.72% tier1
c focused glue 3 used 30363 clauses 13.46% accumulated 77.18%
c focused glue 4 used 14300 clauses  6.34% accumulated 83.52%
c focused glue 5 used  8987 clauses  3.98% accumulated 87.51%
c focused glue 6 used  6025 clauses  2.67% accumulated 90.18% tier2
c
c ---- [ resources ] ---------------------------------------------------------
c
c maximum-resident-set-size:         32362496 bytes         31 MB
c process-time:                            25s              24.91 seconds
c
c ---- [ shutting down ] -----------------------------------------------------
c
c exit 20
